Normalized Data/p10_11_normalized_split0.vrp
NAME:p10_11_NORMALIZED_split
BEST_KNOWN: 0
COMMENT: 0
DIMENSION: 803
CAPACITY: 100
EDGE_WEIGHT_FORMAT: FUNCTION
EDGE_WEIGHT_TYPE: EXACT_2D
NODE_COORD_SECTION
1 0.00000 0.00000
2 41 30
3 41 30
4 41 30
5 -16 -39
6 -16 -39
7 -16 -39
8 -16 -39
9 -31 39
10 -31 39
11 -31 39
12 -31 39
13 -31 39
14 -31 39
15 -31 39
16 29 11
17 29 11
18 29 11
19 29 11
20 -14 -48
21 16 -5
22 16 -5
23 16 -5
24 16 -5
25 1 15
26 1 15
27 50 -12
28 50 -12
29 -32 -25
30 -32 -25
31 -32 -25
32 -32 -25
33 -32 -25
34 2 17
35 2 17
36 2 17
37 2 17
38 2 17
39 2 17
40 -7 -37
41 -7 -37
42 -7 -37
43 -7 -37
44 -7 -37
45 -7 -37
46 12 32
47 12 32
48 -18 -8
49 -18 -8
50 -2 -24
51 -2 -24
52 -2 -24
53 -2 -24
54 -2 -24
55 13 47
56 13 47
57 -5 44
58 -5 44
59 -5 44
60 -5 44
61 -33 -42
62 -33 -42
63 15 20
64 15 20
65 15 20
66 15 20
67 15 20
68 15 20
69 5 -27
70 5 -27
71 5 -27
72 5 -27
73 -2 22
74 -2 22
75 -2 22
76 -2 22
77 -2 22
78 -2 22
79 -46 -7
80 -46 -7
81 -46 -7
82 -46 -7
83 -46 -7
84 -46 -7
85 -4 50
86 -4 50
87 -4 50
88 -45 15
89 -45 15
90 -45 15
91 -45 15
92 -45 15
93 23 -50
94 23 -50
95 23 -50
96 23 -50
97 23 -50
98 23 -50
99 33 38
100 33 38
101 33 38
102 33 38
103 33 38
104 33 38
105 -18 -23
106 -18 -23
107 -18 -23
108 -18 -23
109 -18 -23
110 35 -33
111 35 -33
112 35 -33
113 12 -40
114 12 -40
115 12 -40
116 12 -40
117 12 -40
118 -1 36
119 -1 36
120 -1 36
121 -1 36
122 -15 -4
123 -15 -4
124 -21 -18
125 -21 -18
126 2 -46
127 2 -46
128 2 -46
129 2 -46
130 2 -46
131 37 -22
132 37 -22
133 37 -22
134 37 -22
135 37 -22
136 -21 -18
137 -21 -18
138 -21 -18
139 -33 36
140 -33 36
141 -33 36
142 -33 36
143 -6 -28
144 -6 -28
145 33 -13
146 33 -13
147 -5 -29
148 -5 -29
149 -5 -29
150 -5 -29
151 -42 35
152 -42 35
153 -42 35
154 31 23
155 44 -28
156 44 -28
157 44 -28
158 44 -28
159 5 8
160 5 8
161 5 8
162 -21 -26
163 -21 -26
164 -21 -26
165 -26 45
166 -26 45
167 -26 45
168 -26 45
169 -26 45
170 -48 -42
171 -48 -42
172 -48 -42
173 -48 -16
174 -48 -16
175 -13 -34
176 -13 -34
177 -13 -34
178 -13 -34
179 -13 -34
180 13 -6
181 13 -6
182 13 -6
183 13 -6
184 18 -28
185 18 -28
186 18 -28
187 -32 -14
188 -32 -14
189 -32 -14
190 -1 -38
191 -1 -38
192 -1 -38
193 -16 -20
194 -16 -20
195 -16 -20
196 -16 -20
197 -16 -20
198 -4 -42
199 -4 -42
200 25 -33
201 25 -33
202 25 -33
203 21 21
204 21 21
205 21 21
206 21 21
207 -25 29
208 -25 29
209 -25 29
210 -29 -2
211 -29 -2
212 -29 -2
213 -29 -2
214 -29 -2
215 -22 -47
216 -40 34
217 -40 34
218 -40 34
219 -40 34
220 -40 34
221 35 -29
222 35 -29
223 35 -29
224 25 7
225 25 7
226 25 7
227 25 7
228 25 7
229 25 7
230 17 -33
231 17 -33
232 17 -33
233 1 35
234 1 35
235 1 35
236 -7 -21
237 -7 -21
238 -7 -21
239 -7 -21
240 -7 -21
241 -7 -21
242 5 38
243 5 38
244 5 38
245 5 38
246 -45 -37
247 -45 -37
248 -45 -37
249 -45 -37
250 -45 -37
251 -45 -37
252 21 -42
253 21 -42
254 21 -42
255 0 49
256 0 49
257 0 49
258 0 49
259 0 49
260 -18 -20
261 -18 -20
262 -18 -20
263 45 -46
264 45 -46
265 45 -46
266 45 -46
267 45 -46
268 6 -19
269 6 -19
270 6 -19
271 6 -19
272 6 -19
273 16 -9
274 16 -9
275 16 -9
276 42 -47
277 42 -47
278 42 -47
279 42 -47
280 42 -47
281 42 -47
282 24 22
283 24 22
284 24 22
285 24 22
286 24 22
287 24 22
288 5 43
289 5 43
290 5 43
291 5 43
292 5 43
293 5 43
294 -18 -34
295 -18 -34
296 -18 -34
297 -18 -34
298 -18 -34
299 -18 -34
300 41 -20
301 41 -20
302 41 -20
303 41 -20
304 41 -20
305 -2 6
306 -2 6
307 -2 6
308 -2 6
309 -2 6
310 48 -25
311 48 -25
312 48 -25
313 48 -25
314 48 -25
315 48 -25
316 -40 13
317 -40 13
318 -40 13
319 -6 -39
320 -6 -39
321 -6 -39
322 -14 -17
323 -14 -17
324 38 20
325 38 20
326 38 20
327 38 20
328 28 46
329 28 46
330 28 46
331 28 46
332 28 46
333 28 46
334 0 15
335 0 15
336 0 15
337 0 15
338 -19 -10
339 -19 -10
340 -19 -10
341 -19 -10
342 -19 -10
343 -38 33
344 -38 33
345 -38 33
346 -29 -7
347 -29 -7
348 43 49
349 43 49
350 43 49
351 43 49
352 43 49
353 43 49
354 -50 34
355 -50 34
356 -41 12
357 -41 12
358 -41 12
359 -41 12
360 -3 23
361 -3 23
362 -3 23
363 -3 23
364 -3 23
365 29 33
366 29 33
367 29 33
368 -44 -8
369 -44 -8
370 -44 -8
371 13 22
372 13 22
373 13 22
374 -12 -9
375 -12 -9
376 11 3
377 11 3
378 17 33
379 17 33
380 17 33
381 -7 32
382 -7 32
383 -7 32
384 -7 32
385 -7 32
386 -7 32
387 -7 32
388 37 -45
389 37 -45
390 37 -45
391 37 -45
392 37 -45
393 -36 -37
394 -36 -37
395 -36 -37
396 -36 -37
397 -36 -37
398 10 -21
399 10 -21
400 10 -21
401 10 -21
402 10 -21
403 -23 -40
404 -23 -40
405 -23 -40
406 26 3
407 26 3
408 26 3
409 26 3
410 26 3
411 12 33
412 12 33
413 12 33
414 40 -26
415 40 -26
416 40 -26
417 40 -26
418 -11 -29
419 -11 -29
420 -35 37
421 -35 37
422 -35 37
423 -35 37
424 -35 37
425 15 -19
426 15 -19
427 15 -19
428 15 -19
429 15 -19
430 -12 33
431 -12 33
432 39 38
433 39 38
434 39 38
435 39 24
436 39 24
437 39 24
438 39 24
439 39 24
440 -38 26
441 -38 26
442 -38 26
443 -35 -47
444 -35 -47
445 39 27
446 39 27
447 39 27
448 39 27
449 39 27
450 39 27
451 -16 24
452 -16 24
453 -5 36
454 -5 36
455 -5 36
456 -5 36
457 -5 36
458 -18 -34
459 -18 -34
460 -18 -34
461 -18 -34
462 -18 -34
463 -40 13
464 -40 13
465 -40 13
466 -40 13
467 -40 13
468 6 -15
469 6 -15
470 6 -15
471 6 -15
472 6 -15
473 6 -15
474 6 -15
475 -50 19
476 -50 19
477 -50 19
478 -50 19
479 -50 19
480 35 31
481 35 31
482 35 31
483 35 31
484 35 31
485 35 31
486 7 1
487 7 1
488 7 1
489 3 21
490 3 21
491 3 21
492 3 21
493 27 19
494 27 19
495 27 19
496 27 19
497 27 19
498 21 -2
499 21 -2
500 21 -2
501 21 -2
502 21 -2
503 -33 -49
504 37 11
505 37 11
506 37 11
507 -16 -6
508 -16 -6
509 -16 -6
510 -29 39
511 -29 39
512 -29 39
513 -29 39
514 -44 45
515 -44 45
516 -44 45
517 -44 45
518 -44 45
519 -44 45
520 -49 32
521 -49 32
522 -49 32
523 -49 32
524 -49 32
525 -38 -41
526 -38 -41
527 -38 -41
528 -38 -41
529 -38 -41
530 50 6
531 50 6
532 50 6
533 20 17
534 20 17
535 20 17
536 20 17
537 20 17
538 -27 -35
539 -27 -35
540 -27 -35
541 -27 -35
542 -27 -35
543 -27 -35
544 17 46
545 17 46
546 17 46
547 17 46
548 17 46
549 0 -9
550 0 -9
551 -22 47
552 -22 47
553 -22 47
554 -40 -44
555 -40 -44
556 -40 -44
557 41 -8
558 41 -8
559 41 -8
560 8 29
561 8 29
562 8 29
563 4 -19
564 4 -19
565 4 -19
566 4 -19
567 4 -19
568 4 -19
569 -35 45
570 -35 45
571 -35 45
572 10 -35
573 10 -35
574 10 -35
575 10 -35
576 10 -35
577 10 -35
578 3 -25
579 3 -25
580 3 -25
581 -32 -25
582 -32 -25
583 -32 -25
584 -32 -25
585 -32 -25
586 -32 -25
587 -27 -42
588 -27 -42
589 -27 -42
590 11 -42
591 11 -42
592 11 -42
593 11 -42
594 11 -42
595 21 20
596 21 20
597 21 20
598 21 20
599 21 20
600 26 -26
601 26 -26
602 -36 29
603 -36 29
604 -36 29
605 -36 29
606 -36 29
607 -36 29
608 28 28
609 28 28
610 28 28
611 28 28
612 28 28
613 28 28
614 -23 -45
615 -23 -45
616 -23 -45
617 -23 -45
618 -23 -45
619 -23 -45
620 -1 27
621 -1 27
622 -1 27
623 -1 27
624 -1 27
625 -1 27
626 20 -34
627 20 -34
628 35 15
629 35 15
630 -34 -38
631 -34 -38
632 -34 -38
633 -41 -36
634 -41 -36
635 -41 -36
636 -20 -36
637 -20 -36
638 -20 -36
639 -20 -36
640 -20 -36
641 43 10
642 43 10
643 43 10
644 43 10
645 43 10
646 22 24
647 22 24
648 22 24
649 19 13
650 19 13
651 19 13
652 19 13
653 19 13
654 19 13
655 19 13
656 -49 10
657 -49 10
658 -9 24
659 -9 24
660 -9 24
661 -9 24
662 -9 24
663 -3 -6
664 -3 -6
665 -3 -6
666 -3 -6
667 -3 -6
668 -3 -6
669 -47 -21
670 -47 -21
671 -47 -21
672 -47 -21
673 -47 -21
674 -47 -21
675 21 -6
676 21 -6
677 -42 1
678 -42 1
679 -42 1
680 25 27
681 25 27
682 25 27
683 25 27
684 25 27
685 1 -13
686 1 -13
687 1 -13
688 1 -13
689 1 -13
690 1 -13
691 21 -18
692 21 -18
693 -33 3
694 -33 3
695 -33 3
696 -33 3
697 -28 12
698 -28 12
699 -28 12
700 -28 12
701 -1 35
702 -1 35
703 -20 -34
704 -20 -34
705 -20 -34
706 -20 -34
707 -14 -21
708 -14 -21
709 -14 -21
710 -14 -21
711 1 -4
712 1 -4
713 -50 42
714 -50 42
715 -50 42
716 -50 -44
717 -50 -44
718 -50 -44
719 -50 -44
720 -27 -18
721 -27 -18
722 -27 -18
723 -27 -18
724 -27 -18
725 -27 -18
726 -27 -18
727 -40 24
728 -40 24
729 -40 24
730 13 -32
731 13 -32
732 -17 9
733 -17 9
734 -17 9
735 -17 9
736 -17 9
737 -17 9
738 32 -36
739 32 -36
740 32 -36
741 -49 35
742 -49 35
743 -49 35
744 -49 35
745 -46 15
746 -46 15
747 -46 15
748 -46 15
749 -46 15
750 -46 15
751 38 29
752 38 29
753 38 29
754 38 29
755 38 29
756 38 29
757 38 29
758 -45 -49
759 -45 -49
760 -50 29
761 -50 29
762 -50 29
763 -14 -13
764 -14 -13
765 -14 -13
766 -14 -13
767 -14 -13
768 -14 -13
769 -14 -13
770 7 10
771 7 10
772 7 10
773 15 -46
774 15 -46
775 15 -46
776 -9 49
777 -9 49
778 -9 49
779 -9 49
780 -41 46
781 -41 46
782 -40 -37
783 -40 -37
784 -40 -37
785 -40 -37
786 -40 -37
787 -40 -37
788 -40 -37
789 -22 -45
790 -22 -45
791 -22 -45
792 -22 -45
793 -22 -45
794 -21 33
795 -21 33
796 -21 33
797 -21 33
798 -21 33
799 -21 33
800 50 15
801 50 15
802 50 15
803 50 15
DEMAND_SECTION
1 0
2 20
3 20
4 1
5 20
6 20
7 5
8 1
9 20
10 20
11 5
12 1
13 1
14 1
15 1
16 20
17 1
18 1
19 1
20 20
21 10
22 1
23 1
24 1
25 20
26 10
27 10
28 5
29 20
30 20
31 5
32 1
33 1
34 20
35 10
36 1
37 1
38 1
39 1
40 20
41 10
42 5
43 1
44 1
45 1
46 20
47 20
48 20
49 20
50 10
51 1
52 1
53 1
54 1
55 20
56 20
57 10
58 1
59 1
60 1
61 10
62 5
63 20
64 20
65 5
66 1
67 1
68 1
69 10
70 1
71 1
72 1
73 10
74 5
75 1
76 1
77 1
78 1
79 10
80 5
81 1
82 1
83 1
84 1
85 20
86 20
87 1
88 10
89 1
90 1
91 1
92 1
93 20
94 5
95 1
96 1
97 1
98 1
99 20
100 10
101 5
102 1
103 1
104 1
105 20
106 10
107 1
108 1
109 1
110 20
111 10
112 5
113 20
114 10
115 1
116 1
117 1
118 20
119 20
120 5
121 1
122 20
123 10
124 20
125 10
126 10
127 1
128 1
129 1
130 1
131 20
132 20
133 1
134 1
135 1
136 10
137 5
138 1
139 20
140 20
141 5
142 1
143 10
144 5
145 10
146 5
147 20
148 20
149 1
150 1
151 20
152 20
153 1
154 20
155 20
156 20
157 1
158 1
159 10
160 5
161 1
162 20
163 10
164 1
165 10
166 5
167 1
168 1
169 1
170 20
171 20
172 1
173 20
174 10
175 20
176 20
177 5
178 1
179 1
180 20
181 10
182 5
183 1
184 20
185 5
186 1
187 10
188 5
189 1
190 10
191 5
192 1
193 10
194 5
195 1
196 1
197 1
198 20
199 20
200 20
201 5
202 1
203 20
204 20
205 5
206 1
207 20
208 5
209 1
210 20
211 20
212 5
213 1
214 1
215 20
216 20
217 10
218 1
219 1
220 1
221 20
222 20
223 5
224 20
225 10
226 5
227 1
228 1
229 1
230 20
231 10
232 5
233 20
234 1
235 1
236 20
237 20
238 1
239 1
240 1
241 1
242 20
243 5
244 1
245 1
246 20
247 10
248 1
249 1
250 1
251 1
252 20
253 20
254 1
255 20
256 5
257 1
258 1
259 1
260 20
261 5
262 1
263 20
264 20
265 1
266 1
267 1
268 20
269 10
270 1
271 1
272 1
273 10
274 5
275 1
276 20
277 10
278 5
279 1
280 1
281 1
282 10
283 5
284 1
285 1
286 1
287 1
288 20
289 20
290 1
291 1
292 1
293 1
294 20
295 20
296 5
297 1
298 1
299 1
300 20
301 10
302 5
303 1
304 1
305 20
306 5
307 1
308 1
309 1
310 20
311 5
312 1
313 1
314 1
315 1
316 10
317 5
318 1
319 20
320 1
321 1
322 20
323 10
324 20
325 10
326 1
327 1
328 20
329 20
330 1
331 1
332 1
333 1
334 20
335 10
336 5
337 1
338 20
339 5
340 1
341 1
342 1
343 10
344 1
345 1
346 20
347 1
348 20
349 20
350 1
351 1
352 1
353 1
354 10
355 5
356 20
357 20
358 1
359 1
360 20
361 5
362 1
363 1
364 1
365 20
366 10
367 5
368 20
369 20
370 10
371 20
372 10
373 5
374 20
375 10
376 20
377 20
378 10
379 5
380 1
381 20
382 10
383 5
384 1
385 1
386 1
387 1
388 20
389 1
390 1
391 1
392 1
393 20
394 5
395 1
396 1
397 1
398 20
399 1
400 1
401 1
402 1
403 20
404 1
405 1
406 20
407 10
408 5
409 1
410 1
411 10
412 1
413 1
414 20
415 20
416 5
417 1
418 20
419 5
420 20
421 10
422 1
423 1
424 1
425 10
426 1
427 1
428 1
429 1
430 20
431 1
432 20
433 5
434 1
435 20
436 10
437 1
438 1
439 1
440 20
441 10
442 1
443 20
444 1
445 20
446 20
447 1
448 1
449 1
450 1
451 20
452 1
453 10
454 5
455 1
456 1
457 1
458 20
459 20
460 5
461 1
462 1
463 20
464 10
465 1
466 1
467 1
468 20
469 20
470 5
471 1
472 1
473 1
474 1
475 20
476 20
477 1
478 1
479 1
480 20
481 20
482 5
483 1
484 1
485 1
486 20
487 20
488 5
489 20
490 10
491 5
492 1
493 10
494 5
495 1
496 1
497 1
498 20
499 1
500 1
501 1
502 1
503 20
504 20
505 1
506 1
507 20
508 10
509 5
510 10
511 5
512 1
513 1
514 20
515 20
516 1
517 1
518 1
519 1
520 20
521 1
522 1
523 1
524 1
525 20
526 20
527 5
528 1
529 1
530 20
531 10
532 5
533 10
534 1
535 1
536 1
537 1
538 10
539 5
540 1
541 1
542 1
543 1
544 10
545 5
546 1
547 1
548 1
549 20
550 10
551 10
552 1
553 1
554 20
555 10
556 5
557 20
558 1
559 1
560 20
561 5
562 1
563 20
564 10
565 1
566 1
567 1
568 1
569 10
570 5
571 1
572 20
573 20
574 5
575 1
576 1
577 1
578 20
579 20
580 5
581 20
582 20
583 1
584 1
585 1
586 1
587 20
588 5
589 1
590 20
591 10
592 1
593 1
594 1
595 20
596 10
597 1
598 1
599 1
600 20
601 1
602 20
603 10
604 5
605 1
606 1
607 1
608 10
609 5
610 1
611 1
612 1
613 1
614 20
615 20
616 5
617 1
618 1
619 1
620 20
621 10
622 1
623 1
624 1
625 1
626 20
627 10
628 20
629 1
630 10
631 1
632 1
633 20
634 10
635 5
636 20
637 20
638 5
639 1
640 1
641 20
642 5
643 1
644 1
645 1
646 10
647 5
648 1
649 20
650 20
651 5
652 1
653 1
654 1
655 1
656 20
657 1
658 20
659 20
660 5
661 1
662 1
663 10
664 5
665 1
666 1
667 1
668 1
669 10
670 5
671 1
672 1
673 1
674 1
675 20
676 10
677 10
678 1
679 1
680 20
681 10
682 1
683 1
684 1
685 20
686 10
687 1
688 1
689 1
690 1
691 10
692 5
693 20
694 20
695 1
696 1
697 20
698 20
699 1
700 1
701 20
702 1
703 20
704 1
705 1
706 1
707 10
708 1
709 1
710 1
711 20
712 10
713 20
714 20
715 5
716 20
717 10
718 1
719 1
720 20
721 10
722 5
723 1
724 1
725 1
726 1
727 20
728 10
729 5
730 20
731 1
732 20
733 10
734 5
735 1
736 1
737 1
738 20
739 5
740 1
741 20
742 10
743 1
744 1
745 20
746 5
747 1
748 1
749 1
750 1
751 20
752 10
753 5
754 1
755 1
756 1
757 1
758 20
759 5
760 10
761 5
762 1
763 20
764 10
765 5
766 1
767 1
768 1
769 1
770 20
771 10
772 1
773 10
774 5
775 1
776 10
777 1
778 1
779 1
780 20
781 1
782 20
783 20
784 5
785 1
786 1
787 1
788 1
789 20
790 5
791 1
792 1
793 1
794 20
795 10
796 5
797 1
798 1
799 1
800 10
801 5
802 1
803 1
DEPOT_SECTION
1
-1
EOF