Normalized Data/p10_11_normalized_split0.sol
802 -6 4 7 5 176 175 174 178 177 240 239 238 -16 18 17 15 627 628 323 326 324 325 504 503 505 -19 214 618 615 616 587 586 588 541 542 538 537 162 -23 22 20 21 675 674 272 273 274 181 179 180 182 -25 24 34 33 333 334 335 336 -29 32 583 31 581 585 580 30 28 582 584 723 721 724 339 -38 37 35 36 490 242 243 241 232 233 234 119 117 453 452 455 456 454 -40 44 41 42 39 43 320 319 318 197 198 -46 45 559 561 560 488 489 491 -47 48 340 341 337 338 767 766 763 762 768 -51 53 50 52 49 147 146 149 148 143 142 417 418 -66 63 64 65 62 67 371 370 372 158 159 160 -75 76 361 363 59 57 58 56 778 776 775 777 85 86 84 258 256 255 257 254 -77 73 72 74 362 359 619 622 658 657 661 -79 80 83 82 81 78 172 173 671 670 669 672 673 668 719 720 725 722 -98 102 331 327 332 329 328 330 546 544 545 547 543 377 379 378 -108 107 635 636 637 702 163 161 261 260 765 764 -111 109 390 387 739 737 738 199 200 201 427 426 -116 114 115 112 113 589 591 592 590 593 129 125 128 127 126 191 189 190 -121 507 506 508 374 373 665 662 667 664 -122 211 209 212 210 213 693 692 695 694 -124 135 123 136 137 259 105 106 104 196 195 -131 130 414 221 220 -133 132 134 309 310 314 311 312 313 155 157 154 156 413 415 416 -139 140 138 141 9 13 509 510 797 794 305 306 307 -145 144 303 299 302 300 301 26 27 557 556 558 -171 170 169 718 717 715 716 757 758 394 395 -203 202 534 535 532 536 653 648 650 649 651 -204 205 645 683 681 679 682 680 282 281 596 597 598 594 595 -218 216 217 219 740 742 741 743 353 354 519 522 523 521 520 761 760 759 -222 110 262 263 265 266 264 278 275 276 280 279 277 389 391 388 -227 223 224 225 226 228 405 406 408 409 407 499 501 498 500 497 -237 235 236 708 706 707 709 192 194 193 321 322 -244 290 287 288 292 289 291 55 54 411 412 410 -296 460 298 295 458 293 457 459 294 297 666 663 -304 308 732 734 733 736 731 735 696 698 697 -315 466 317 88 87 91 90 89 744 749 747 748 745 746 475 477 474 476 478 699 -342 152 714 712 713 513 515 518 514 517 516 -345 346 188 187 186 367 369 368 678 677 676 -360 384 385 382 380 383 386 381 120 118 700 701 621 620 623 624 -365 364 366 484 483 481 482 479 480 609 612 607 285 283 286 284 533 -375 640 644 643 642 641 801 802 799 800 531 529 530 -392 782 525 527 528 524 526 630 629 631 -393 396 554 553 555 442 443 502 60 61 540 539 -401 400 626 253 252 251 97 93 92 94 96 95 774 773 772 -420 422 419 423 421 151 150 215 343 344 603 -424 428 183 184 185 231 230 573 571 575 572 574 576 -425 691 690 600 599 625 229 729 730 -438 435 437 434 436 445 448 449 444 153 494 495 654 652 -450 206 208 207 793 796 798 795 429 430 660 659 -451 511 512 12 14 8 11 10 779 780 568 569 570 166 167 164 168 165 551 550 552 -461 788 790 791 792 789 617 614 613 403 402 404 638 639 703 705 704 -463 316 462 464 465 357 356 355 358 655 656 -469 473 398 399 397 69 68 70 71 579 578 577 564 566 567 563 -470 467 468 471 472 267 269 268 270 271 565 562 -486 485 487 376 771 770 769 -492 496 493 446 447 3 1 2 752 753 756 754 755 750 751 -548 549 685 687 686 689 688 684 710 711 -604 605 606 602 601 440 441 439 728 727 726 -611 610 608 432 431 433 347 348 351 349 352 350 100 101 103 99 646 647 -633 632 634 249 248 247 246 250 245 781 784 785 787 786 783 0 





OBJ=
5475.982
BEST_KNOWN=
0.000